[2026-03-23T13:37:32.759Z] Pipeline "set_exp_2_exp_2_n023_c007_g003" → 2026_03_23_13_37_32_set_exp_2_exp_2_n023_c007_g003_max.sol
Set parameter WLSAccessID
Set parameter WLSSecret
Set parameter LicenseID to value 2792458
Set parameter LogFile to value "gurobi.log"
Using license file /root/gurobi.lic
Academic license 2792458 - for non-commercial use only - registered to an___@studenti.unipg.it

Gurobi Optimizer version 13.0.1 build v13.0.1rc0 (linux64 - "Ubuntu 24.04.4 LTS")
Copyright (c) 2026, Gurobi Optimization, LLC

Warning: Duplicate section found (read 'binary') - Is a variable name equal to an LP file format keyword?
Warning: Duplicate section found (read 'binary') - Is a variable name equal to an LP file format keyword?
Warning: Duplicate section found (read 'binary') - Is a variable name equal to an LP file format keyword?
Warning: Duplicate section found (read 'binary') - Is a variable name equal to an LP file format keyword?
Warning: Duplicate section found (read 'binary') - Is a variable name equal to an LP file format keyword?
Warning: Duplicate section found (read 'binary') - Is a variable name equal to an LP file format keyword?
Warning: Duplicate section found (read 'binary') - Is a variable name equal to an LP file format keyword?
Warning: Duplicate section found (read 'binary') - Is a variable name equal to an LP file format keyword?
Warning: Duplicate section found (read 'binary') - Is a variable name equal to an LP file format keyword?
Warning: Duplicate section found (read 'binary') - Is a variable name equal to an LP file format keyword?
Warning: Further warnings of this type will be omitted.
Read LP format model from file /root/bgw/data/uploads/2026_03_23_13_37_32_set_exp_2_exp_2_n023_c007_g003_max.lp
Reading time = 0.01 seconds
: 4276 rows, 408 columns, 12591 nonzeros

Using Gurobi shared library /opt/gurobi1301/linux64/lib/libgurobi.so.13.0.1

CPU model: AMD EPYC-Genoa Processor, instruction set [SSE2|AVX|AVX2|AVX512]
Thread count: 16 physical cores, 16 logical processors, using up to 16 threads

Academic license 2792458 - for non-commercial use only - registered to an___@studenti.unipg.it
Optimize a model with 4276 rows, 408 columns and 12591 nonzeros (Max)
Model fingerprint: 0xc18a210a
Model has 7 linear objective coefficients
Variable types: 30 continuous, 378 integer (378 binary)
Coefficient statistics:
  Matrix range     [1e+00, 2e+01]
  Objective range  [1e+00, 1e+00]
  Bounds range     [1e+00, 1e+00]
  RHS range        [1e+00, 3e+01]

Found heuristic solution: objective 7.0000000
Presolve removed 684 rows and 123 columns
Presolve time: 0.03s
Presolved: 3592 rows, 285 columns, 11056 nonzeros
Variable types: 0 continuous, 285 integer (271 binary)
Found heuristic solution: objective 9.0000000

Root relaxation: objective 2.800000e+01, 378 iterations, 0.02 seconds (0.02 work units)

    Nodes    |    Current Node    |     Objective Bounds      |     Work
 Expl Unexpl |  Obj  Depth IntInf | Incumbent    BestBd   Gap | It/Node Time

     0     0   28.00000    0   35    9.00000   28.00000   211%     -    0s
H    0     0                      13.0000000   28.00000   115%     -    0s
H    0     0                      16.0000000   28.00000  75.0%     -    0s
H    0     0                      17.0000000   28.00000  64.7%     -    0s
H    0     0                      18.0000000   28.00000  55.6%     -    0s
     0     0   28.00000    0   38   18.00000   28.00000  55.6%     -    0s
H    0     0                      19.0000000   28.00000  47.4%     -    0s
H    0     0                      20.0000000   28.00000  40.0%     -    0s
     0     0   28.00000    0   38   20.00000   28.00000  40.0%     -    0s
     0     0   28.00000    0   53   20.00000   28.00000  40.0%     -    0s
     0     0   28.00000    0   41   20.00000   28.00000  40.0%     -    0s
     0     0   28.00000    0   40   20.00000   28.00000  40.0%     -    0s
     0     0   28.00000    0   31   20.00000   28.00000  40.0%     -    0s
     0     0   28.00000    0   46   20.00000   28.00000  40.0%     -    0s
     0     0   28.00000    0   31   20.00000   28.00000  40.0%     -    0s
     0     0   28.00000    0   30   20.00000   28.00000  40.0%     -    0s
     0     0   28.00000    0   37   20.00000   28.00000  40.0%     -    0s
     0     0   28.00000    0   36   20.00000   28.00000  40.0%     -    0s
     0     0   28.00000    0   37   20.00000   28.00000  40.0%     -    0s
     0     0   28.00000    0   41   20.00000   28.00000  40.0%     -    0s
     0     0   28.00000    0   34   20.00000   28.00000  40.0%     -    0s
     0     0   28.00000    0   36   20.00000   28.00000  40.0%     -    0s
     0     0   28.00000    0   36   20.00000   28.00000  40.0%     -    0s
     0     0   28.00000    0   33   20.00000   28.00000  40.0%     -    0s
     0     0   28.00000    0   33   20.00000   28.00000  40.0%     -    0s
     0     0   28.00000    0   33   20.00000   28.00000  40.0%     -    0s
     0     2   28.00000    0   33   20.00000   28.00000  40.0%     -    0s

Cutting planes:
  Cover: 15
  MIR: 2
  Inf proof: 61
  Zero half: 1

Explored 3900 nodes (267079 simplex iterations) in 2.36 seconds (3.66 work units)
Thread count was 16 (of 16 available processors)

Solution count 8: 20 19 18 ... 7

Optimal solution found (tolerance 1.00e-04)
Best objective 2.000000000000e+01, best bound 2.000000000000e+01, gap 0.0000%

Wrote result file '/root/bgw/data/results/2026_03_23_13_37_32_set_exp_2_exp_2_n023_c007_g003_max.sol'

